JOBS = 1..7;
MACHINES = 1..3;
SPEED = 1;
time = array3d(JOBS,MACHINES,1..SPEED,[43,26,19,80,56,66,73,56,86,18,48,99,75,14,90,24,43,65,24,74,62]);
energy = array3d(JOBS,MACHINES,1..SPEED,[65,77,82,44,57,51,48,57,42,83,61,37,47,86,40,78,65,52,78,47,53]);
precedence = array2d(JOBS,MACHINES,[2,0,1,0,2,1,2,1,0,1,0,2,0,2,1,1,0,2,2,1,0]);
ME = 1;
TE = 118;
st_old = array2d(JOBS,MACHINES,[209,122,148,87,233,167,414,289,62,167,74,388,12,473,233,185,31,323,390,148,0]);
SpeedScaling = array2d(JOBS,MACHINES,[1,1,1,1,1,1,1,1,1,1,1,1,1,1,1,1,1,1,1,1,1]);
